p cnf 430 1488
-191 -40 0
-191 -130 0
-191 100 0
-191 118 0
-191 174 0
191 40 130 -100 -118 -174 0
-192 24 0
-192 -155 0
-192 -34 0
-192 164 0
-192 56 0
192 -24 155 34 -164 -56 0
-193 48 0
-193 182 0
-193 61 0
-193 -42 0
-193 -96 0
193 -48 -182 -61 42 96 0
-194 -104 0
-194 94 0
-194 -7 0
-194 -87 0
-194 -116 0
194 104 -94 7 87 116 0
-195 -63 0
-195 133 0
-195 154 0
-195 78 0
-195 39 0
195 63 -133 -154 -78 -39 0
191 192 193 194 195 0
-196 175 0
-196 -161 0
-196 162 0
-196 24 0
-196 151 0
196 -175 161 -162 -24 -151 0
-197 -35 0
-197 61 0
-197 10 0
-197 137 0
-197 -98 0
197 35 -61 -10 -137 98 0
-198 -174 0
-198 169 0
-198 -38 0
-198 -107 0
-198 35 0
198 174 -169 38 107 -35 0
-199 -80 0
-199 -17 0
-199 -35 0
-199 -51 0
-199 173 0
199 80 17 35 51 -173 0
-200 -134 0
-200 78 0
-200 -126 0
-200 -27 0
-200 -64 0
200 134 -78 126 27 64 0
196 197 198 199 200 0
-201 176 0
-201 -100 0
-201 5 0
-201 -187 0
-201 -166 0
201 -176 100 -5 187 166 0
-202 6 0
-202 -130 0
-202 141 0
-202 57 0
-202 -176 0
202 -6 130 -141 -57 176 0
-203 30 0
-203 -35 0
-203 24 0
-203 -8 0
-203 -54 0
203 -30 35 -24 8 54 0
-204 -190 0
-204 -87 0
-204 -84 0
-204 -8 0
-204 167 0
204 190 87 84 8 -167 0
-205 71 0
-205 -83 0
-205 56 0
-205 7 0
-205 77 0
205 -71 83 -56 -7 -77 0
201 202 203 204 205 0
-206 37 0
-206 58 0
-206 157 0
-206 -48 0
-206 140 0
206 -37 -58 -157 48 -140 0
-207 -174 0
-207 -50 0
-207 85 0
-207 -129 0
-207 -57 0
207 174 50 -85 129 57 0
-208 -119 0
-208 44 0
-208 72 0
-208 64 0
-208 4 0
208 119 -44 -72 -64 -4 0
-209 17 0
-209 -25 0
-209 -18 0
-209 144 0
-209 40 0
209 -17 25 18 -144 -40 0
-210 15 0
-210 -154 0
-210 14 0
-210 -186 0
-210 -31 0
210 -15 154 -14 186 31 0
206 207 208 209 210 0
-211 4 0
-211 -133 0
-211 18 0
-211 183 0
-211 -144 0
211 -4 133 -18 -183 144 0
-212 38 0
-212 -175 0
-212 85 0
-212 164 0
-212 37 0
212 -38 175 -85 -164 -37 0
-213 -5 0
-213 -183 0
-213 70 0
-213 -92 0
-213 -82 0
213 5 183 -70 92 82 0
-214 -71 0
-214 -10 0
-214 -86 0
-214 -54 0
-214 96 0
214 71 10 86 54 -96 0
-215 -69 0
-215 -35 0
-215 -74 0
-215 165 0
-215 18 0
215 69 35 74 -165 -18 0
211 212 213 214 215 0
-216 78 0
-216 12 0
-216 175 0
-216 44 0
-216 -38 0
216 -78 -12 -175 -44 38 0
-217 -138 0
-217 -153 0
-217 48 0
-217 -98 0
-217 -101 0
217 138 153 -48 98 101 0
-218 -42 0
-218 68 0
-218 -157 0
-218 -70 0
-218 30 0
218 42 -68 157 70 -30 0
-219 108 0
-219 -119 0
-219 152 0
-219 -72 0
-219 121 0
219 -108 119 -152 72 -121 0
-220 94 0
-220 3 0
-220 78 0
-220 -18 0
-220 189 0
220 -94 -3 -78 18 -189 0
216 217 218 219 220 0
-221 24 0
-221 -151 0
-221 -124 0
-221 48 0
-221 -173 0
221 -24 151 124 -48 173 0
-222 58 0
-222 -92 0
-222 170 0
-222 59 0
-222 95 0
222 -58 92 -170 -59 -95 0
-223 128 0
-223 115 0
-223 -69 0
-223 111 0
-223 15 0
223 -128 -115 69 -111 -15 0
-224 -5 0
-224 -134 0
-224 -28 0
-224 -140 0
-224 189 0
224 5 134 28 140 -189 0
-225 -172 0
-225 173 0
-225 -90 0
-225 -152 0
-225 23 0
225 172 -173 90 152 -23 0
221 222 223 224 225 0
-226 133 0
-226 140 0
-226 -143 0
-226 -102 0
-226 -148 0
226 -133 -140 143 102 148 0
-227 182 0
-227 179 0
-227 148 0
-227 -190 0
-227 -176 0
227 -182 -179 -148 190 176 0
-228 -186 0
-228 49 0
-228 -70 0
-228 2 0
-228 117 0
228 186 -49 70 -2 -117 0
-229 -178 0
-229 -160 0
-229 -172 0
-229 -148 0
-229 -54 0
229 178 160 172 148 54 0
-230 46 0
-230 -94 0
-230 -107 0
-230 67 0
-230 -32 0
230 -46 94 107 -67 32 0
226 227 228 229 230 0
-231 -121 0
-231 107 0
-231 -175 0
-231 102 0
-231 97 0
231 121 -107 175 -102 -97 0
-232 -76 0
-232 -43 0
-232 -185 0
-232 -12 0
-232 -174 0
232 76 43 185 12 174 0
-233 31 0
-233 -126 0
-233 -147 0
-233 169 0
-233 96 0
233 -31 126 147 -169 -96 0
-234 -27 0
-234 -164 0
-234 24 0
-234 40 0
-234 -83 0
234 27 164 -24 -40 83 0
-235 -132 0
-235 -187 0
-235 -6 0
-235 -149 0
-235 -59 0
235 132 187 6 149 59 0
231 232 233 234 235 0
-236 15 0
-236 168 0
-236 -115 0
-236 181 0
-236 173 0
236 -15 -168 115 -181 -173 0
-237 -79 0
-237 -185 0
-237 83 0
-237 178 0
-237 -52 0
237 79 185 -83 -178 52 0
-238 -53 0
-238 -47 0
-238 -178 0
-238 51 0
-238 -27 0
238 53 47 178 -51 27 0
-239 154 0
-239 172 0
-239 121 0
-239 -64 0
-239 89 0
239 -154 -172 -121 64 -89 0
-240 -99 0
-240 -164 0
-240 61 0
-240 -167 0
-240 59 0
240 99 164 -61 167 -59 0
236 237 238 239 240 0
-241 -39 0
-241 96 0
-241 -189 0
-241 -70 0
-241 51 0
241 39 -96 189 70 -51 0
-242 68 0
-242 149 0
-242 41 0
-242 -113 0
-242 172 0
242 -68 -149 -41 113 -172 0
-243 -80 0
-243 -150 0
-243 36 0
-243 154 0
-243 188 0
243 80 150 -36 -154 -188 0
-244 -160 0
-244 53 0
-244 -165 0
-244 168 0
-244 37 0
244 160 -53 165 -168 -37 0
-245 142 0
-245 -88 0
-245 75 0
-245 -148 0
-245 130 0
245 -142 88 -75 148 -130 0
241 242 243 244 245 0
-246 104 0
-246 135 0
-246 110 0
-246 -43 0
-246 145 0
246 -104 -135 -110 43 -145 0
-247 -101 0
-247 20 0
-247 -169 0
-247 -131 0
-247 151 0
247 101 -20 169 131 -151 0
-248 -159 0
-248 86 0
-248 -46 0
-248 187 0
-248 -105 0
248 159 -86 46 -187 105 0
-249 -146 0
-249 186 0
-249 -83 0
-249 -71 0
-249 42 0
249 146 -186 83 71 -42 0
-250 -183 0
-250 151 0
-250 -67 0
-250 20 0
-250 92 0
250 183 -151 67 -20 -92 0
246 247 248 249 250 0
-251 153 0
-251 -150 0
-251 -78 0
-251 61 0
-251 -103 0
251 -153 150 78 -61 103 0
-252 112 0
-252 174 0
-252 -101 0
-252 188 0
-252 171 0
252 -112 -174 101 -188 -171 0
-253 -117 0
-253 -181 0
-253 -112 0
-253 13 0
-253 170 0
253 117 181 112 -13 -170 0
-254 18 0
-254 52 0
-254 -138 0
-254 144 0
-254 184 0
254 -18 -52 138 -144 -184 0
-255 -94 0
-255 185 0
-255 107 0
-255 176 0
-255 -83 0
255 94 -185 -107 -176 83 0
251 252 253 254 255 0
-256 -28 0
-256 -104 0
-256 -155 0
-256 -126 0
-256 -63 0
256 28 104 155 126 63 0
-257 -103 0
-257 119 0
-257 -65 0
-257 61 0
-257 110 0
257 103 -119 65 -61 -110 0
-258 176 0
-258 165 0
-258 -92 0
-258 -6 0
-258 -129 0
258 -176 -165 92 6 129 0
-259 45 0
-259 -6 0
-259 -83 0
-259 -92 0
-259 -119 0
259 -45 6 83 92 119 0
-260 -123 0
-260 117 0
-260 16 0
-260 137 0
-260 41 0
260 123 -117 -16 -137 -41 0
256 257 258 259 260 0
-261 95 0
-261 3 0
-261 -138 0
-261 152 0
-261 -112 0
261 -95 -3 138 -152 112 0
-262 -3 0
-262 -94 0
-262 12 0
-262 -86 0
-262 -115 0
262 3 94 -12 86 115 0
-263 125 0
-263 -65 0
-263 -40 0
-263 130 0
-263 93 0
263 -125 65 40 -130 -93 0
-264 -47 0
-264 -37 0
-264 -152 0
-264 168 0
-264 -155 0
264 47 37 152 -168 155 0
-265 -6 0
-265 -78 0
-265 35 0
-265 100 0
-265 -110 0
265 6 78 -35 -100 110 0
261 262 263 264 265 0
-266 -156 0
-266 -70 0
-266 -79 0
-266 -49 0
-266 -75 0
266 156 70 79 49 75 0
-267 26 0
-267 131 0
-267 -28 0
-267 69 0
-267 -180 0
267 -26 -131 28 -69 180 0
-268 -189 0
-268 -79 0
-268 -20 0
-268 -177 0
-268 42 0
268 189 79 20 177 -42 0
-269 -84 0
-269 37 0
-269 -77 0
-269 55 0
-269 -96 0
269 84 -37 77 -55 96 0
-270 -23 0
-270 106 0
-270 53 0
-270 -162 0
-270 56 0
270 23 -106 -53 162 -56 0
266 267 268 269 270 0
-271 -140 0
-271 -1 0
-271 -24 0
-271 75 0
-271 142 0
271 140 1 24 -75 -142 0
-272 -164 0
-272 -170 0
-272 185 0
-272 -16 0
-272 39 0
272 164 170 -185 16 -39 0
-273 50 0
-273 -33 0
-273 63 0
-273 -175 0
-273 58 0
273 -50 33 -63 175 -58 0
-274 -55 0
-274 -75 0
-274 57 0
-274 -24 0
-274 -59 0
274 55 75 -57 24 59 0
-275 -55 0
-275 -54 0
-275 130 0
-275 -114 0
-275 173 0
275 55 54 -130 114 -173 0
271 272 273 274 275 0
-276 -86 0
-276 -111 0
-276 67 0
-276 -2 0
-276 -183 0
276 86 111 -67 2 183 0
-277 -146 0
-277 -162 0
-277 176 0
-277 73 0
-277 28 0
277 146 162 -176 -73 -28 0
-278 -167 0
-278 11 0
-278 85 0
-278 -100 0
-278 -1 0
278 167 -11 -85 100 1 0
-279 121 0
-279 34 0
-279 -147 0
-279 160 0
-279 132 0
279 -121 -34 147 -160 -132 0
-280 -52 0
-280 100 0
-280 -130 0
-280 -187 0
-280 125 0
280 52 -100 130 187 -125 0
276 277 278 279 280 0
-281 64 0
-281 9 0
-281 -123 0
-281 11 0
-281 -14 0
281 -64 -9 123 -11 14 0
-282 147 0
-282 -39 0
-282 52 0
-282 179 0
-282 -49 0
282 -147 39 -52 -179 49 0
-283 -2 0
-283 -183 0
-283 -121 0
-283 -26 0
-283 186 0
283 2 183 121 26 -186 0
-284 130 0
-284 -22 0
-284 5 0
-284 -149 0
-284 -44 0
284 -130 22 -5 149 44 0
-285 148 0
-285 -189 0
-285 91 0
-285 -129 0
-285 83 0
285 -148 189 -91 129 -83 0
281 282 283 284 285 0
-286 116 0
-286 -77 0
-286 79 0
-286 86 0
-286 -179 0
286 -116 77 -79 -86 179 0
-287 165 0
-287 183 0
-287 -150 0
-287 -61 0
-287 -176 0
287 -165 -183 150 61 176 0
-288 -153 0
-288 41 0
-288 -174 0
-288 -58 0
-288 -125 0
288 153 -41 174 58 125 0
-289 157 0
-289 -155 0
-289 61 0
-289 -27 0
-289 147 0
289 -157 155 -61 27 -147 0
-290 -31 0
-290 102 0
-290 -179 0
-290 119 0
-290 -98 0
290 31 -102 179 -119 98 0
286 287 288 289 290 0
-291 56 0
-291 109 0
-291 -120 0
-291 -100 0
-291 -160 0
291 -56 -109 120 100 160 0
-292 176 0
-292 -53 0
-292 -43 0
-292 181 0
-292 -14 0
292 -176 53 43 -181 14 0
-293 139 0
-293 -95 0
-293 44 0
-293 -171 0
-293 77 0
293 -139 95 -44 171 -77 0
-294 47 0
-294 124 0
-294 143 0
-294 -33 0
-294 -43 0
294 -47 -124 -143 33 43 0
-295 -115 0
-295 -52 0
-295 -188 0
-295 -12 0
-295 -84 0
295 115 52 188 12 84 0
291 292 293 294 295 0
-296 15 0
-296 -144 0
-296 -177 0
-296 57 0
-296 -94 0
296 -15 144 177 -57 94 0
-297 -75 0
-297 -142 0
-297 14 0
-297 -74 0
-297 -72 0
297 75 142 -14 74 72 0
-298 67 0
-298 135 0
-298 -168 0
-298 96 0
-298 -184 0
298 -67 -135 168 -96 184 0
-299 127 0
-299 -17 0
-299 -92 0
-299 -115 0
-299 154 0
299 -127 17 92 115 -154 0
-300 119 0
-300 98 0
-300 -170 0
-300 135 0
-300 47 0
300 -119 -98 170 -135 -47 0
296 297 298 299 300 0
-301 -131 0
-301 -164 0
-301 24 0
-301 -132 0
-301 -84 0
301 131 164 -24 132 84 0
-302 -13 0
-302 -159 0
-302 16 0
-302 -109 0
-302 -36 0
302 13 159 -16 109 36 0
-303 33 0
-303 -20 0
-303 -184 0
-303 168 0
-303 -178 0
303 -33 20 184 -168 178 0
-304 181 0
-304 -186 0
-304 157 0
-304 -126 0
-304 14 0
304 -181 186 -157 126 -14 0
-305 -155 0
-305 67 0
-305 124 0
-305 115 0
-305 181 0
305 155 -67 -124 -115 -181 0
301 302 303 304 305 0
-306 52 0
-306 -45 0
-306 75 0
-306 65 0
-306 -15 0
306 -52 45 -75 -65 15 0
-307 136 0
-307 -39 0
-307 177 0
-307 109 0
-307 91 0
307 -136 39 -177 -109 -91 0
-308 40 0
-308 -173 0
-308 -56 0
-308 72 0
-308 187 0
308 -40 173 56 -72 -187 0
-309 -57 0
-309 -68 0
-309 180 0
-309 60 0
-309 103 0
309 57 68 -180 -60 -103 0
-310 29 0
-310 82 0
-310 -91 0
-310 61 0
-310 -32 0
310 -29 -82 91 -61 32 0
306 307 308 309 310 0
-311 145 0
-311 -9 0
-311 -152 0
-311 -168 0
-311 76 0
311 -145 9 152 168 -76 0
-312 34 0
-312 -105 0
-312 -116 0
-312 -118 0
-312 -57 0
312 -34 105 116 118 57 0
-313 100 0
-313 -10 0
-313 -159 0
-313 -34 0
-313 -106 0
313 -100 10 159 34 106 0
-314 108 0
-314 -42 0
-314 -4 0
-314 -99 0
-314 127 0
314 -108 42 4 99 -127 0
-315 -145 0
-315 91 0
-315 85 0
-315 142 0
-315 100 0
315 145 -91 -85 -142 -100 0
311 312 313 314 315 0
-316 138 0
-316 97 0
-316 73 0
-316 -161 0
-316 -5 0
316 -138 -97 -73 161 5 0
-317 -162 0
-317 -164 0
-317 -27 0
-317 -105 0
-317 -72 0
317 162 164 27 105 72 0
-318 134 0
-318 -87 0
-318 34 0
-318 44 0
-318 -55 0
318 -134 87 -34 -44 55 0
-319 -91 0
-319 95 0
-319 -141 0
-319 -98 0
-319 -147 0
319 91 -95 141 98 147 0
-320 -108 0
-320 -70 0
-320 32 0
-320 -135 0
-320 64 0
320 108 70 -32 135 -64 0
316 317 318 319 320 0
-321 -10 0
-321 179 0
-321 -68 0
-321 7 0
-321 -84 0
321 10 -179 68 -7 84 0
-322 7 0
-322 -3 0
-322 181 0
-322 -176 0
-322 -4 0
322 -7 3 -181 176 4 0
-323 -15 0
-323 -108 0
-323 -17 0
-323 149 0
-323 -162 0
323 15 108 17 -149 162 0
-324 -67 0
-324 -80 0
-324 122 0
-324 -158 0
-324 -62 0
324 67 80 -122 158 62 0
-325 97 0
-325 -185 0
-325 -86 0
-325 -166 0
-325 57 0
325 -97 185 86 166 -57 0
321 322 323 324 325 0
-326 173 0
-326 -169 0
-326 13 0
-326 -10 0
-326 166 0
326 -173 169 -13 10 -166 0
-327 -92 0
-327 150 0
-327 33 0
-327 6 0
-327 -87 0
327 92 -150 -33 -6 87 0
-328 147 0
-328 -81 0
-328 78 0
-328 178 0
-328 -182 0
328 -147 81 -78 -178 182 0
-329 184 0
-329 -183 0
-329 -9 0
-329 -96 0
-329 -74 0
329 -184 183 9 96 74 0
-330 -43 0
-330 3 0
-330 -50 0
-330 -19 0
-330 -84 0
330 43 -3 50 19 84 0
326 327 328 329 330 0
-331 -160 0
-331 130 0
-331 144 0
-331 128 0
-331 -127 0
331 160 -130 -144 -128 127 0
-332 -122 0
-332 51 0
-332 -144 0
-332 -189 0
-332 -162 0
332 122 -51 144 189 162 0
-333 106 0
-333 176 0
-333 49 0
-333 -114 0
-333 57 0
333 -106 -176 -49 114 -57 0
-334 -180 0
-334 -183 0
-334 138 0
-334 -84 0
-334 -186 0
334 180 183 -138 84 186 0
-335 151 0
-335 -171 0
-335 4 0
-335 -170 0
-335 -60 0
335 -151 171 -4 170 60 0
331 332 333 334 335 0
-336 53 0
-336 124 0
-336 -141 0
-336 65 0
-336 59 0
336 -53 -124 141 -65 -59 0
-337 -169 0
-337 73 0
-337 48 0
-337 47 0
-337 129 0
337 169 -73 -48 -47 -129 0
-338 -166 0
-338 122 0
-338 29 0
-338 117 0
-338 -88 0
338 166 -122 -29 -117 88 0
-339 -104 0
-339 75 0
-339 82 0
-339 -158 0
-339 144 0
339 104 -75 -82 158 -144 0
-340 190 0
-340 120 0
-340 -91 0
-340 26 0
-340 -171 0
340 -190 -120 91 -26 171 0
336 337 338 339 340 0
-341 -10 0
-341 138 0
-341 -28 0
-341 -171 0
-341 133 0
341 10 -138 28 171 -133 0
-342 17 0
-342 20 0
-342 72 0
-342 185 0
-342 -113 0
342 -17 -20 -72 -185 113 0
-343 -119 0
-343 -122 0
-343 -142 0
-343 -8 0
-343 164 0
343 119 122 142 8 -164 0
-344 -39 0
-344 -7 0
-344 150 0
-344 125 0
-344 178 0
344 39 7 -150 -125 -178 0
-345 -115 0
-345 -50 0
-345 130 0
-345 -27 0
-345 145 0
345 115 50 -130 27 -145 0
341 342 343 344 345 0
-346 -45 0
-346 137 0
-346 -1 0
-346 175 0
-346 63 0
346 45 -137 1 -175 -63 0
-347 57 0
-347 20 0
-347 102 0
-347 159 0
-347 -100 0
347 -57 -20 -102 -159 100 0
-348 -102 0
-348 -63 0
-348 175 0
-348 -180 0
-348 56 0
348 102 63 -175 180 -56 0
-349 187 0
-349 -10 0
-349 169 0
-349 152 0
-349 -129 0
349 -187 10 -169 -152 129 0
-350 52 0
-350 58 0
-350 1 0
-350 113 0
-350 99 0
350 -52 -58 -1 -113 -99 0
346 347 348 349 350 0
-351 -36 0
-351 -154 0
-351 30 0
-351 -137 0
-351 -105 0
351 36 154 -30 137 105 0
-352 96 0
-352 -14 0
-352 -33 0
-352 104 0
-352 189 0
352 -96 14 33 -104 -189 0
-353 -14 0
-353 37 0
-353 -72 0
-353 -42 0
-353 -190 0
353 14 -37 72 42 190 0
-354 -19 0
-354 148 0
-354 -107 0
-354 -141 0
-354 -120 0
354 19 -148 107 141 120 0
-355 8 0
-355 178 0
-355 -111 0
-355 60 0
-355 -46 0
355 -8 -178 111 -60 46 0
351 352 353 354 355 0
-356 -45 0
-356 -161 0
-356 -156 0
-356 170 0
-356 -150 0
356 45 161 156 -170 150 0
-357 -105 0
-357 183 0
-357 104 0
-357 35 0
-357 -46 0
357 105 -183 -104 -35 46 0
-358 126 0
-358 -31 0
-358 -182 0
-358 85 0
-358 84 0
358 -126 31 182 -85 -84 0
-359 73 0
-359 83 0
-359 -128 0
-359 35 0
-359 173 0
359 -73 -83 128 -35 -173 0
-360 14 0
-360 -38 0
-360 97 0
-360 -64 0
-360 -183 0
360 -14 38 -97 64 183 0
356 357 358 359 360 0
-361 132 0
-361 -188 0
-361 124 0
-361 171 0
-361 36 0
361 -132 188 -124 -171 -36 0
-362 162 0
-362 79 0
-362 -10 0
-362 -73 0
-362 60 0
362 -162 -79 10 73 -60 0
-363 -161 0
-363 -136 0
-363 -121 0
-363 147 0
-363 174 0
363 161 136 121 -147 -174 0
-364 6 0
-364 2 0
-364 114 0
-364 -155 0
-364 142 0
364 -6 -2 -114 155 -142 0
-365 161 0
-365 42 0
-365 -57 0
-365 67 0
-365 81 0
365 -161 -42 57 -67 -81 0
361 362 363 364 365 0
-366 136 0
-366 -88 0
-366 20 0
-366 -86 0
-366 141 0
366 -136 88 -20 86 -141 0
-367 122 0
-367 -66 0
-367 -45 0
-367 -40 0
-367 -73 0
367 -122 66 45 40 73 0
-368 120 0
-368 86 0
-368 126 0
-368 25 0
-368 183 0
368 -120 -86 -126 -25 -183 0
-369 -6 0
-369 -186 0
-369 141 0
-369 -184 0
-369 -25 0
369 6 186 -141 184 25 0
-370 70 0
-370 -139 0
-370 -164 0
-370 -156 0
-370 -120 0
370 -70 139 164 156 120 0
366 367 368 369 370 0
-371 25 0
-371 -190 0
-371 79 0
-371 -41 0
-371 -74 0
371 -25 190 -79 41 74 0
-372 152 0
-372 -28 0
-372 124 0
-372 -62 0
-372 162 0
372 -152 28 -124 62 -162 0
-373 158 0
-373 -62 0
-373 -79 0
-373 -188 0
-373 32 0
373 -158 62 79 188 -32 0
-374 157 0
-374 -190 0
-374 97 0
-374 -70 0
-374 -101 0
374 -157 190 -97 70 101 0
-375 68 0
-375 8 0
-375 -34 0
-375 52 0
-375 151 0
375 -68 -8 34 -52 -151 0
371 372 373 374 375 0
-376 -145 0
-376 69 0
-376 -33 0
-376 -47 0
-376 -129 0
376 145 -69 33 47 129 0
-377 30 0
-377 181 0
-377 -104 0
-377 -182 0
-377 -135 0
377 -30 -181 104 182 135 0
-378 -170 0
-378 131 0
-378 -42 0
-378 144 0
-378 172 0
378 170 -131 42 -144 -172 0
-379 68 0
-379 148 0
-379 -40 0
-379 16 0
-379 86 0
379 -68 -148 40 -16 -86 0
-380 -174 0
-380 -75 0
-380 -127 0
-380 24 0
-380 117 0
380 174 75 127 -24 -117 0
376 377 378 379 380 0
-381 -183 0
-381 -119 0
-381 18 0
-381 -161 0
-381 -118 0
381 183 119 -18 161 118 0
-382 116 0
-382 122 0
-382 -62 0
-382 -48 0
-382 -189 0
382 -116 -122 62 48 189 0
-383 -70 0
-383 -140 0
-383 150 0
-383 -94 0
-383 76 0
383 70 140 -150 94 -76 0
-384 85 0
-384 123 0
-384 -4 0
-384 108 0
-384 121 0
384 -85 -123 4 -108 -121 0
-385 34 0
-385 -131 0
-385 178 0
-385 -160 0
-385 7 0
385 -34 131 -178 160 -7 0
381 382 383 384 385 0
-386 28 0
-386 -128 0
-386 112 0
-386 -156 0
-386 165 0
386 -28 128 -112 156 -165 0
-387 -146 0
-387 171 0
-387 -121 0
-387 -82 0
-387 -111 0
387 146 -171 121 82 111 0
-388 -45 0
-388 72 0
-388 -16 0
-388 -8 0
-388 111 0
388 45 -72 16 8 -111 0
-389 -74 0
-389 -93 0
-389 177 0
-389 -59 0
-389 -52 0
389 74 93 -177 59 52 0
-390 -176 0
-390 -70 0
-390 -6 0
-390 -164 0
-390 185 0
390 176 70 6 164 -185 0
386 387 388 389 390 0
-391 74 0
-391 108 0
-391 -20 0
-391 33 0
-391 160 0
391 -74 -108 20 -33 -160 0
-392 -129 0
-392 35 0
-392 103 0
-392 99 0
-392 111 0
392 129 -35 -103 -99 -111 0
-393 110 0
-393 39 0
-393 1 0
-393 -51 0
-393 53 0
393 -110 -39 -1 51 -53 0
-394 -46 0
-394 -115 0
-394 33 0
-394 -86 0
-394 27 0
394 46 115 -33 86 -27 0
-395 127 0
-395 -13 0
-395 187 0
-395 -86 0
-395 110 0
395 -127 13 -187 86 -110 0
391 392 393 394 395 0
-396 -36 0
-396 -118 0
-396 -132 0
-396 38 0
-396 30 0
396 36 118 132 -38 -30 0
-397 56 0
-397 17 0
-397 95 0
-397 133 0
-397 -97 0
397 -56 -17 -95 -133 97 0
-398 145 0
-398 -115 0
-398 -48 0
-398 69 0
-398 59 0
398 -145 115 48 -69 -59 0
-399 18 0
-399 -185 0
-399 46 0
-399 173 0
-399 84 0
399 -18 185 -46 -173 -84 0
-400 173 0
-400 -100 0
-400 60 0
-400 -62 0
-400 137 0
400 -173 100 -60 62 -137 0
396 397 398 399 400 0
-401 -16 0
-401 -15 0
-401 -188 0
-401 60 0
-401 7 0
401 16 15 188 -60 -7 0
-402 -60 0
-402 -107 0
-402 -68 0
-402 105 0
-402 19 0
402 60 107 68 -105 -19 0
-403 -190 0
-403 -157 0
-403 -28 0
-403 70 0
-403 86 0
403 190 157 28 -70 -86 0
-404 84 0
-404 24 0
-404 -175 0
-404 -70 0
-404 -38 0
404 -84 -24 175 70 38 0
-405 94 0
-405 -104 0
-405 23 0
-405 46 0
-405 -42 0
405 -94 104 -23 -46 42 0
401 402 403 404 405 0
-406 106 0
-406 -39 0
-406 -116 0
-406 108 0
-406 138 0
406 -106 39 116 -108 -138 0
-407 -37 0
-407 -123 0
-407 -173 0
-407 155 0
-407 -86 0
407 37 123 173 -155 86 0
-408 -158 0
-408 165 0
-408 -30 0
-408 -179 0
-408 11 0
408 158 -165 30 179 -11 0
-409 -132 0
-409 -77 0
-409 -65 0
-409 -110 0
-409 32 0
409 132 77 65 110 -32 0
-410 125 0
-410 -106 0
-410 -174 0
-410 131 0
-410 8 0
410 -125 106 174 -131 -8 0
406 407 408 409 410 0
-411 -48 0
-411 -29 0
-411 -152 0
-411 -68 0
-411 -4 0
411 48 29 152 68 4 0
-412 -46 0
-412 -187 0
-412 -47 0
-412 177 0
-412 54 0
412 46 187 47 -177 -54 0
-413 18 0
-413 -48 0
-413 7 0
-413 44 0
-413 -137 0
413 -18 48 -7 -44 137 0
-414 151 0
-414 -6 0
-414 -120 0
-414 140 0
-414 -21 0
414 -151 6 120 -140 21 0
-415 180 0
-415 -98 0
-415 4 0
-415 21 0
-415 5 0
415 -180 98 -4 -21 -5 0
411 412 413 414 415 0
-416 94 0
-416 157 0
-416 -90 0
-416 -103 0
-416 100 0
416 -94 -157 90 103 -100 0
-417 143 0
-417 36 0
-417 57 0
-417 71 0
-417 -160 0
417 -143 -36 -57 -71 160 0
-418 -163 0
-418 51 0
-418 -156 0
-418 -168 0
-418 27 0
418 163 -51 156 168 -27 0
-419 -12 0
-419 -153 0
-419 72 0
-419 -19 0
-419 -2 0
419 12 153 -72 19 2 0
-420 -76 0
-420 146 0
-420 57 0
-420 11 0
-420 128 0
420 76 -146 -57 -11 -128 0
416 417 418 419 420 0
-421 -181 0
-421 -85 0
-421 53 0
-421 33 0
-421 130 0
421 181 85 -53 -33 -130 0
-422 176 0
-422 60 0
-422 -54 0
-422 -31 0
-422 -124 0
422 -176 -60 54 31 124 0
-423 186 0
-423 32 0
-423 -150 0
-423 -173 0
-423 -104 0
423 -186 -32 150 173 104 0
-424 -30 0
-424 91 0
-424 88 0
-424 3 0
-424 179 0
424 30 -91 -88 -3 -179 0
-425 139 0
-425 174 0
-425 31 0
-425 -35 0
-425 1 0
425 -139 -174 -31 35 -1 0
421 422 423 424 425 0
-426 190 0
-426 -119 0
-426 11 0
-426 -186 0
-426 -13 0
426 -190 119 -11 186 13 0
-427 116 0
-427 98 0
-427 -6 0
-427 -25 0
-427 10 0
427 -116 -98 6 25 -10 0
-428 -85 0
-428 -24 0
-428 13 0
-428 -140 0
-428 80 0
428 85 24 -13 140 -80 0
-429 -185 0
-429 1 0
-429 75 0
-429 114 0
-429 -125 0
429 185 -1 -75 -114 125 0
-430 109 0
-430 -73 0
-430 42 0
-430 -127 0
-430 62 0
430 -109 73 -42 127 -62 0
426 427 428 429 430 0
